memory 2 GB

molecule h2o {
0 1
O
H 1 1.1
H 1 1.1 2 104
}

set basis aug-cc-pvdz
set scf {
    guess core
    e_convergence 1e-12
    d_convergence 1e-10
    scf_type pk
}

energy('scf')
